c at-most-one of 6 pigeons in 5 holes
c p1@1 1
c p1@2 2
c p1@3 3
c p1@4 4
c p1@5 5
c p2@1 6
c p2@2 7
c p2@3 8
c p2@4 9
c p2@5 10
c p3@1 11
c p3@2 12
c p3@3 13
c p3@4 14
c p3@5 15
c p4@1 16
c p4@2 17
c p4@3 18
c p4@4 19
c p4@5 20
c p5@1 21
c p5@2 22
c p5@3 23
c p5@4 24
c p5@5 25
c p6@1 26
c p6@2 27
c p6@3 28
c p6@4 29
c p6@5 30
p inccnf
1 2 3 4 5 0
6 7 8 9 10 0
11 12 13 14 15 0
16 17 18 19 20 0
21 22 23 24 25 0
26 27 28 29 30 0
-1 -6 0
-1 -11 0
-1 -16 0
-1 -21 0
-1 -26 0
-6 -11 0
-6 -16 0
-6 -21 0
-6 -26 0
-11 -16 0
-11 -21 0
-11 -26 0
-16 -21 0
-16 -26 0
-21 -26 0
-2 -7 0
-2 -12 0
-2 -17 0
-2 -22 0
-2 -27 0
-7 -12 0
-7 -17 0
-7 -22 0
-7 -27 0
-12 -17 0
-12 -22 0
-12 -27 0
-17 -22 0
-17 -27 0
-22 -27 0
-3 -8 0
-3 -13 0
-3 -18 0
-3 -23 0
-3 -28 0
-8 -13 0
-8 -18 0
-8 -23 0
-8 -28 0
-13 -18 0
-13 -23 0
-13 -28 0
-18 -23 0
-18 -28 0
-23 -28 0
-4 -9 0
-4 -14 0
-4 -19 0
-4 -24 0
-4 -29 0
-9 -14 0
-9 -19 0
-9 -24 0
-9 -29 0
-14 -19 0
-14 -24 0
-14 -29 0
-19 -24 0
-19 -29 0
-24 -29 0
-5 -10 0
-5 -15 0
-5 -20 0
-5 -25 0
-5 -30 0
-10 -15 0
-10 -20 0
-10 -25 0
-10 -30 0
-15 -20 0
-15 -25 0
-15 -30 0
-20 -25 0
-20 -30 0
-25 -30 0
a 1 7 0 
a 1 8 0 
a 1 9 0 
a 1 10 0 
a 1 12 0 
a 1 13 0 
a 1 14 0 
a 1 15 0 
a 1 17 0 
a 1 18 0 
a 1 19 0 
a 1 20 0 
a 1 22 0 
a 1 23 0 
a 1 24 0 
a 1 25 0 
a 1 27 0 
a 1 28 0 
a 1 29 0 
a 1 30 0 
a 7 13 0 
a 7 14 0 
a 7 15 0 
a 7 18 0 
a 7 19 0 
a 7 20 0 
a 7 23 0 
a 7 24 0 
a 7 25 0 
a 7 28 0 
a 7 29 0 
a 7 30 0 
a 13 19 0 
a 13 20 0 
a 13 24 0 
a 13 25 0 
a 13 29 0 
a 13 30 0 
a 19 25 0 
a 19 30 0 
